(declare-const i Int)
(declare-const j Int)
(declare-const havoc Int)
(declare-const x Int)
(declare-const term_to_project_onto0_integralized Int)
(declare-const y Int)
(declare-const term_to_project_onto2_integralized Int)
(declare-const tmp___4 Int)
(declare-const |x'| Int)
(declare-const |tmp___4'| Int)
(declare-const term_to_project_onto_integralized Int)
(declare-const |y'| Int)
(declare-const |j'| Int)
(declare-const phi_y Int)
(declare-const term_to_project_onto1_integralized Int)
(declare-const phi_x Int)
(assert (and (<= (- j) 0) (or (<= (+ havoc 1) 0) (<= (+ (- havoc) 1) 0))
               (or (and (or (<= (+ (- i) j 1) 0) (<= (+ i (- j) 1) 0))
                          (= (+ (- phi_x) x -1) 0) (= (+ (- phi_y) y 1) 0))
                     (and (= (+ (- i) j) 0) (= (+ (- phi_x) x 1) 0)
                            (= (+ (- phi_y) y -1) 0)))
               (= (+ |tmp___4'| (- havoc)) 0) (= (+ |y'| (- phi_y)) 0)
               (= (+ |x'| (- phi_x)) 0) (= (+ |j'| (- j) -1) 0)
               (= (+ term_to_project_onto2_integralized (- (+ |j'| (- j)))) 0)
               (= (+ term_to_project_onto1_integralized (- (+ |x'| (- x)))) 0)
               (= (+ term_to_project_onto0_integralized (- (+ |y'| (- y)))) 0)
               (= (+ term_to_project_onto_integralized
                       (- (+ |tmp___4'| (- tmp___4)))) 0)))